3 
4  51 
5  02 13 32 40 48 57 
6  07 15 23 30 38 45 53 
7  00 08 15 23 30 38 45 53 
8  00 08 15 23 30 38 45 53 
9  00 07 15 22 30 37 45 52 
10  00 07 15 22 30 37 45 52 
11  00 07 15 22 30 37 45 52 
12  00 07 15 22 30 37 45 52 
13  00 07 15 22 30 37 45 52 
14  00 07 15 22 30 37 45 52 
15  00 07 15 22 30 37 45 52 
16  00 07 15 22 30 37 45 52 
17  00 07 15 22 30 37 45 52 
18  00 07 15 22 30 37 45 52 
19  00 07 15 22 30 37 45 52 
20  00 09 24 39 54 
21  09 24 39 53 
22  08 24 39 53 
23 
